(set-logic empty)
(set-info :status unsat)
(declare-fun p () Bool)
(declare-fun q () Bool)
(declare-fun r () Bool)
(assert (=> q r))
(assert (=> r (and p q)))
(assert (=> p (or q r)))
(assert (not (<=> p q)))
(check-sat)
(exit)
